(set-info :Origin "This instance was generated by: BanditFuzz-- an RL fuzzer for SMT solvers" )
(set-info :Author "Joe Scott, Fed Mora, Vijay Ganesh" )
(set-info :Contact "Joe Scott, joseph.scott@uwaterloo.ca")
(set-logic QF_BV)
(declare-const bool_0 Bool)
(declare-const bool_1 Bool)
(declare-const bool_2 Bool)
(declare-const bool_3 Bool)
(declare-const bool_4 Bool)
(declare-const bv_0 (_ BitVec 32))
(declare-const bv_1 (_ BitVec 32))
(declare-const bv_2 (_ BitVec 32))
(declare-const bv_3 (_ BitVec 32))
(declare-const bv_4 (_ BitVec 32))
(assert (not (bvsle (bvxnor #x081e636e  bv_3) (bvashr #x90c2f0ce  #xa11fb6fa ))))
(assert (=> (bvule (bvsmod bv_4 #xcfa58e29 ) (bvurem #xd8ec54e0  bv_2)) (=> (bvugt #x967800c7  #x7dc35c88 ) (bvsgt #x0cea3aed  bv_0))))
(assert (not (bvugt (bvurem bv_0 #x34e8e529 ) (bvurem #x99186b29  bv_0))))
(assert (bvsgt (bvnand (bvand bv_2 #x42b34c5f ) (bvsub #xc926d96d  bv_0)) (bvnor (bvsub #x3af7eb73  #x1620a272 ) (bvsmod #xb20bc780  bv_2))))
(assert (bvslt (bvnand (bvsmod #xdacb83fb  bv_4) (bvand bv_1 bv_4)) (bvlshr (bvor bv_4 #x5fcb0a65 ) (bvshl bv_0 #xca7ce64c ))))
(check-sat)
(exit)
